\ Model Staff Scheduling Problem with Skill Level Constraints
\ LP format - for model browsing. Use MPS format to capture full model detail.
Minimize
  x[0,0] + x[0,1] + x[0,2] + x[0,3] + x[0,4] + x[1,0] + x[1,1] + x[1,2]
   + x[1,3] + x[1,4] + x[2,0] + x[2,1] + x[2,2] + x[2,3] + x[2,4] + x[3,0]
   + x[3,1] + x[3,2] + x[3,3] + x[3,4] + x[4,0] + x[4,1] + x[4,2] + x[4,3]
   + x[4,4] + x[5,0] + x[5,1] + x[5,2] + x[5,3] + x[5,4] + x[6,0] + x[6,1]
   + x[6,2] + x[6,3] + x[6,4] + x[7,0] + x[7,1] + x[7,2] + x[7,3] + x[7,4]
   + x[8,0] + x[8,1] + x[8,2] + x[8,3] + x[8,4] + x[9,0] + x[9,1] + x[9,2]
   + x[9,3] + x[9,4]
Subject To
 R0: x[0,0] + x[1,0] + x[2,0] + x[3,0] + x[4,0] + x[5,0] + x[6,0] + x[7,0]
   + x[8,0] + x[9,0] >= 1
 R1: x[0,1] + x[1,1] + x[2,1] + x[3,1] + x[4,1] + x[5,1] + x[6,1] + x[7,1]
   + x[8,1] + x[9,1] >= 3
 R2: x[0,2] + x[1,2] + x[2,2] + x[3,2] + x[4,2] + x[5,2] + x[6,2] + x[7,2]
   + x[8,2] + x[9,2] >= 1
 R3: x[0,3] + x[1,3] + x[2,3] + x[3,3] + x[4,3] + x[5,3] + x[6,3] + x[7,3]
   + x[8,3] + x[9,3] >= 3
 R4: x[0,4] + x[1,4] + x[2,4] + x[3,4] + x[4,4] + x[5,4] + x[6,4] + x[7,4]
   + x[8,4] + x[9,4] >= 1
 R5: 6.05 x[0,0] + 5.54 x[0,1] + 7.48 x[0,2] + 6.75 x[0,3] + 6.78 x[0,4]
   <= 27.39
 R6: 6.05 x[1,0] + 5.54 x[1,1] + 7.48 x[1,2] + 6.75 x[1,3] + 6.78 x[1,4]
   <= 27.87
 R7: 6.05 x[2,0] + 5.54 x[2,1] + 7.48 x[2,2] + 6.75 x[2,3] + 6.78 x[2,4]
   <= 29.29
 R8: 6.05 x[3,0] + 5.54 x[3,1] + 7.48 x[3,2] + 6.75 x[3,3] + 6.78 x[3,4]
   <= 36.14
 R9: 6.05 x[4,0] + 5.54 x[4,1] + 7.48 x[4,2] + 6.75 x[4,3] + 6.78 x[4,4]
   <= 38.34
 R10: 6.05 x[5,0] + 5.54 x[5,1] + 7.48 x[5,2] + 6.75 x[5,3] + 6.78 x[5,4]
   <= 26.07
 R11: 6.05 x[6,0] + 5.54 x[6,1] + 7.48 x[6,2] + 6.75 x[6,3] + 6.78 x[6,4]
   <= 30.71
 R12: 6.05 x[7,0] + 5.54 x[7,1] + 7.48 x[7,2] + 6.75 x[7,3] + 6.78 x[7,4]
   <= 26.54
 R13: 6.05 x[8,0] + 5.54 x[8,1] + 7.48 x[8,2] + 6.75 x[8,3] + 6.78 x[8,4]
   <= 26.16
 R14: 6.05 x[9,0] + 5.54 x[9,1] + 7.48 x[9,2] + 6.75 x[9,3] + 6.78 x[9,4]
   <= 38.97
 R15: 4.69 x[0,0] >= 2.01
 R16: 3.42 x[1,0] >= 2.01
 R17: 3.64 x[2,0] >= 2.01
 R18: 3.3 x[3,0] >= 2.01
 R19: 2.88 x[4,0] >= 2.01
 R20: 1.36 x[5,0] >= 2.01
 R21: 2.96 x[6,0] >= 2.01
 R22: 2.37 x[7,0] >= 2.01
 R23: 3.07 x[8,0] >= 2.01
 R24: 3.53 x[9,0] >= 2.01
 R25: 4.69 x[0,1] >= 2.07
 R26: 3.42 x[1,1] >= 2.07
 R27: 3.64 x[2,1] >= 2.07
 R28: 3.3 x[3,1] >= 2.07
 R29: 2.88 x[4,1] >= 2.07
 R30: 1.36 x[5,1] >= 2.07
 R31: 2.96 x[6,1] >= 2.07
 R32: 2.37 x[7,1] >= 2.07
 R33: 3.07 x[8,1] >= 2.07
 R34: 3.53 x[9,1] >= 2.07
 R35: 4.69 x[0,2] >= 2.09
 R36: 3.42 x[1,2] >= 2.09
 R37: 3.64 x[2,2] >= 2.09
 R38: 3.3 x[3,2] >= 2.09
 R39: 2.88 x[4,2] >= 2.09
 R40: 1.36 x[5,2] >= 2.09
 R41: 2.96 x[6,2] >= 2.09
 R42: 2.37 x[7,2] >= 2.09
 R43: 3.07 x[8,2] >= 2.09
 R44: 3.53 x[9,2] >= 2.09
 R45: 4.69 x[0,3] >= 2.16
 R46: 3.42 x[1,3] >= 2.16
 R47: 3.64 x[2,3] >= 2.16
 R48: 3.3 x[3,3] >= 2.16
 R49: 2.88 x[4,3] >= 2.16
 R50: 1.36 x[5,3] >= 2.16
 R51: 2.96 x[6,3] >= 2.16
 R52: 2.37 x[7,3] >= 2.16
 R53: 3.07 x[8,3] >= 2.16
 R54: 3.53 x[9,3] >= 2.16
 R55: 4.69 x[0,4] >= 3.05
 R56: 3.42 x[1,4] >= 3.05
 R57: 3.64 x[2,4] >= 3.05
 R58: 3.3 x[3,4] >= 3.05
 R59: 2.88 x[4,4] >= 3.05
 R60: 1.36 x[5,4] >= 3.05
 R61: 2.96 x[6,4] >= 3.05
 R62: 2.37 x[7,4] >= 3.05
 R63: 3.07 x[8,4] >= 3.05
 R64: 3.53 x[9,4] >= 3.05
Bounds
End
